65 24
63 28
40 191
52 297
106 420
135 420
392 459
473 446
473 320
409 151
377 36
228 32
228 192
251 192
298 192
298 216
318 240
318 320
240 338
233 345
179 345
129 274
149 259
149 243
149 223
392 477
392 496
